NAME: rue_15_8
TYPE: TSP
DIMENSION: 15
EDGE_WEIGHT_TYPE: EUC_2D
NODE_COORD_SECTION
1 48 43
2 61 5
3 39 52
4 84 51
5 11 93
6 51 36
7 4 79
8 87 90
9 24 9
10 16 80
11 82 8
12 6 70
13 65 97
14 10 57
15 93 16
